HUN,8,6,296
2,28,3,21,5,28,4,27,1,30,0,23
0,29,1,25,5,28,2,24,3,26,4,23
2,21,4,25,0,24,5,25,1,26,3,27
2,28,4,29,3,22,0,27,1,29,5,28
1,25,0,23,4,27,3,25,5,25,2,25
4,26,2,24,0,21,3,29,1,30,5,27
2,22,3,29,5,24,1,28,0,23,4,21
3,30,5,29,0,27,4,27,1,26,2,23
